decision_x1=[0,7];
decision_x2=[0,7];
decision_x3=[0,7];
decision_x4=[0,7];
decision_x5=[0,7];
decision_x6=[0,7];
decision_x7=[0,7];
decision_x8=[0,7];
decision_x9=[0,7];
decision_x10=[0,7];
decision_x11=[0,7];
decision_x12=[0,7];
decision_x13=[0,7];
decision_x14=[0,7];
decision_x15=[0,7];
decision_x16=[0,7];
random_y1=[0,7];
random_y2=[0,7];
random_y3=[0,7];
random_y4=[0,7];
random_y5=[0,7];
random_y6=[0,7];
random_y7=[0,7];
constraint_x2_x1=[
0,0,10|
0,1,3|
0,2,0.95|
0,3,6.7|
0,4,5.4|
0,5,3.5|
0,6,6.7|
0,7,2.9|
1,0,0.73|
1,1,3|
1,2,4.2|
1,3,9.7|
1,4,9.6|
1,5,8.8|
1,6,4.3|
1,7,0.47|
2,0,9.5|
2,1,8.9|
2,2,1.6|
2,3,6.2|
2,4,8.6|
2,5,1.7|
2,6,9.5|
2,7,4.2|
3,0,8.1|
3,1,0.32|
3,2,4|
3,3,7.5|
3,4,9.6|
3,5,9.2|
3,6,1.2|
3,7,1.7|
4,0,8.5|
4,1,4.1|
4,2,1.9|
4,3,0.97|
4,4,6.1|
4,5,4|
4,6,8.1|
4,7,0.59|
5,0,2.2|
5,1,3.7|
5,2,1.8|
5,3,3.4|
5,4,9.2|
5,5,8.8|
5,6,2.7|
5,7,2.7|
6,0,3.3|
6,1,3.4|
6,2,7.9|
6,3,8|
6,4,3.7|
6,5,0.047|
6,6,9.7|
6,7,4.8|
7,0,6.3|
7,1,6.9|
7,2,0.077|
7,3,5.3|
7,4,9.9|
7,5,6.9|
7,6,9.6|
7,7,1.2|
];
constraint_x3_x2=[
0,0,2.8|
0,1,7.3|
0,2,9.8|
0,3,0.73|
0,4,8|
0,5,1.1|
0,6,1.3|
0,7,7.2|
1,0,2.6|
1,1,5.6|
1,2,4.7|
1,3,2.9|
1,4,5.3|
1,5,3.2|
1,6,9.3|
1,7,9.1|
2,0,8.2|
2,1,9.8|
2,2,6|
2,3,5.8|
2,4,9.4|
2,5,4.3|
2,6,5.2|
2,7,2|
3,0,7.1|
3,1,1.7|
3,2,8.8|
3,3,2.1|
3,4,6.7|
3,5,3|
3,6,5.5|
3,7,7.4|
4,0,9.5|
4,1,9.8|
4,2,6|
4,3,1.3|
4,4,5.6|
4,5,5.6|
4,6,7.1|
4,7,2.6|
5,0,7.7|
5,1,8.9|
5,2,3.2|
5,3,9.2|
5,4,7.4|
5,5,6.9|
5,6,9.3|
5,7,1.3|
6,0,6.4|
6,1,6.4|
6,2,0.9|
6,3,1|
6,4,8.6|
6,5,2.5|
6,6,6.2|
6,7,7.9|
7,0,1.1|
7,1,7.1|
7,2,8.8|
7,3,8.4|
7,4,3.6|
7,5,0.24|
7,6,8.4|
7,7,1.8|
];
constraint_x4_x3=[
0,0,7|
0,1,5.7|
0,2,2.5|
0,3,4.3|
0,4,4.7|
0,5,0.42|
0,6,6.2|
0,7,0.6|
1,0,5.9|
1,1,2.9|
1,2,9.8|
1,3,9.3|
1,4,6.9|
1,5,7.7|
1,6,1.8|
1,7,3.2|
2,0,0.26|
2,1,8.6|
2,2,2.7|
2,3,8.7|
2,4,6.2|
2,5,5.7|
2,6,0.069|
2,7,0.4|
3,0,8|
3,1,6.5|
3,2,9.9|
3,3,8.9|
3,4,10|
3,5,1.2|
3,6,3.8|
3,7,7.7|
4,0,6.6|
4,1,1.7|
4,2,8|
4,3,3.8|
4,4,8.5|
4,5,2.7|
4,6,6.4|
4,7,9|
5,0,8.4|
5,1,1.3|
5,2,4.6|
5,3,9|
5,4,6.1|
5,5,0.66|
5,6,1.2|
5,7,4.1|
6,0,1.2|
6,1,1.3|
6,2,3|
6,3,3.3|
6,4,0.82|
6,5,2.9|
6,6,6.5|
6,7,6|
7,0,5.7|
7,1,6.1|
7,2,9.1|
7,3,2.5|
7,4,0.95|
7,5,7.5|
7,6,4.5|
7,7,1.9|
];
constraint_x5_x1=[
0,0,0.67|
0,1,6.8|
0,2,2.5|
0,3,0.17|
0,4,4.1|
0,5,4.3|
0,6,4.7|
0,7,0.1|
1,0,0.041|
1,1,1.7|
1,2,7.7|
1,3,3.7|
1,4,1.2|
1,5,6.7|
1,6,6.7|
1,7,8.6|
2,0,8.9|
2,1,4.2|
2,2,4.4|
2,3,2.6|
2,4,1.9|
2,5,9.7|
2,6,8.1|
2,7,6.7|
3,0,1.3|
3,1,2.3|
3,2,7.3|
3,3,2.3|
3,4,2.7|
3,5,8.6|
3,6,7.9|
3,7,3.2|
4,0,4.6|
4,1,4.9|
4,2,5.4|
4,3,3.3|
4,4,2.3|
4,5,0.89|
4,6,0.97|
4,7,6.8|
5,0,6.9|
5,1,7.6|
5,2,5.7|
5,3,2.3|
5,4,2.2|
5,5,1.3|
5,6,3.4|
5,7,8.9|
6,0,4.3|
6,1,0.39|
6,2,7.2|
6,3,5.2|
6,4,8.3|
6,5,7.9|
6,6,4.3|
6,7,8.8|
7,0,7.6|
7,1,4.3|
7,2,3.3|
7,3,0.095|
7,4,6.6|
7,5,0.66|
7,6,7.3|
7,7,2.3|
];
constraint_x6_x2=[
0,0,0.27|
0,1,4.5|
0,2,2|
0,3,5.5|
0,4,9|
0,5,6|
0,6,3.6|
0,7,9.4|
1,0,1.2|
1,1,5.4|
1,2,0.23|
1,3,1.7|
1,4,9.4|
1,5,7.8|
1,6,7.8|
1,7,5.3|
2,0,6|
2,1,5.4|
2,2,0.26|
2,3,8.5|
2,4,3.3|
2,5,6.2|
2,6,0.13|
2,7,8.8|
3,0,4|
3,1,3.6|
3,2,7.6|
3,3,3|
3,4,0.24|
3,5,0.88|
3,6,0.74|
3,7,6.6|
4,0,9|
4,1,2.3|
4,2,6|
4,3,4.6|
4,4,0.67|
4,5,9.1|
4,6,4.8|
4,7,3.4|
5,0,4.2|
5,1,6.5|
5,2,4.9|
5,3,2.1|
5,4,0.91|
5,5,2.2|
5,6,3.7|
5,7,1.6|
6,0,2.2|
6,1,3.8|
6,2,3|
6,3,8.5|
6,4,4|
6,5,9|
6,6,8.6|
6,7,7.9|
7,0,9.1|
7,1,7|
7,2,6.8|
7,3,1.9|
7,4,3.1|
7,5,5.9|
7,6,4.7|
7,7,5.8|
];
constraint_x7_x3=[
0,0,6|
0,1,2.7|
0,2,0.12|
0,3,7.4|
0,4,2.6|
0,5,2.1|
0,6,9|
0,7,5.4|
1,0,3.1|
1,1,1.2|
1,2,0.3|
1,3,8.9|
1,4,8.9|
1,5,2.3|
1,6,4.7|
1,7,1.1|
2,0,8.9|
2,1,3.3|
2,2,6|
2,3,9.9|
2,4,4|
2,5,5.8|
2,6,0.27|
2,7,0.95|
3,0,9.6|
3,1,5.7|
3,2,9.9|
3,3,2.8|
3,4,8.8|
3,5,4.2|
3,6,8.7|
3,7,3.3|
4,0,6.4|
4,1,3.9|
4,2,6.8|
4,3,0.11|
4,4,1.6|
4,5,8.3|
4,6,8.9|
4,7,8.7|
5,0,6.8|
5,1,5.1|
5,2,5.6|
5,3,5.4|
5,4,6.7|
5,5,8.9|
5,6,7.5|
5,7,6.2|
6,0,2.9|
6,1,10|
6,2,9.3|
6,3,4.1|
6,4,4.8|
6,5,4.2|
6,6,4.5|
6,7,7.9|
7,0,2.3|
7,1,4.4|
7,2,0.28|
7,3,5.8|
7,4,9.7|
7,5,6.9|
7,6,3.4|
7,7,5.5|
];
constraint_x8_x4=[
0,0,2.9|
0,1,5.1|
0,2,3.8|
0,3,5.7|
0,4,4.7|
0,5,9.4|
0,6,6.6|
0,7,7.8|
1,0,5.4|
1,1,5.6|
1,2,6.1|
1,3,6.8|
1,4,7.9|
1,5,8.6|
1,6,9.7|
1,7,4.4|
2,0,4.3|
2,1,8|
2,2,5.5|
2,3,0.63|
2,4,5.7|
2,5,8.8|
2,6,9.4|
2,7,1.4|
3,0,8.3|
3,1,3.4|
3,2,6|
3,3,4.3|
3,4,9.3|
3,5,6.5|
3,6,1.1|
3,7,3.9|
4,0,2.7|
4,1,0.94|
4,2,3.9|
4,3,3.3|
4,4,7.3|
4,5,5.9|
4,6,8.5|
4,7,6|
5,0,6.8|
5,1,3.3|
5,2,2.4|
5,3,8.6|
5,4,5.2|
5,5,6.9|
5,6,3.8|
5,7,3.6|
6,0,0.19|
6,1,1.3|
6,2,2.3|
6,3,0.67|
6,4,1.7|
6,5,1.9|
6,6,4.1|
6,7,4.3|
7,0,3.3|
7,1,5.2|
7,2,2.9|
7,3,0.77|
7,4,4.1|
7,5,4.9|
7,6,1.7|
7,7,4.1|
];
constraint_x9_x5=[
0,0,8.3|
0,1,7.3|
0,2,5.9|
0,3,8.1|
0,4,1.1|
0,5,5|
0,6,6|
0,7,0.68|
1,0,4.7|
1,1,4.5|
1,2,1.5|
1,3,6.5|
1,4,9.7|
1,5,1.3|
1,6,6.2|
1,7,8.6|
2,0,2.9|
2,1,3.9|
2,2,8.7|
2,3,3.6|
2,4,0.89|
2,5,3.8|
2,6,9.4|
2,7,2.8|
3,0,9.2|
3,1,7.4|
3,2,5.4|
3,3,4.5|
3,4,6.9|
3,5,8.2|
3,6,8.9|
3,7,3.8|
4,0,4.5|
4,1,6.1|
4,2,6.9|
4,3,1|
4,4,7.3|
4,5,0.57|
4,6,0.57|
4,7,5.4|
5,0,5.4|
5,1,8.2|
5,2,6.4|
5,3,6.3|
5,4,6.8|
5,5,1.4|
5,6,7.4|
5,7,7.2|
6,0,7.8|
6,1,7.3|
6,2,0.77|
6,3,7.8|
6,4,3.9|
6,5,1.1|
6,6,1.6|
6,7,6.1|
7,0,7.4|
7,1,2.4|
7,2,7.5|
7,3,4.5|
7,4,4.6|
7,5,6.3|
7,6,5.4|
7,7,4.3|
];
constraint_x10_x6=[
0,0,6.7|
0,1,7.4|
0,2,0.87|
0,3,9.8|
0,4,3.4|
0,5,2.1|
0,6,5.3|
0,7,5.8|
1,0,6.9|
1,1,8.9|
1,2,8.6|
1,3,9.8|
1,4,0.72|
1,5,6.1|
1,6,8.9|
1,7,4.9|
2,0,4.8|
2,1,3.1|
2,2,3.2|
2,3,1.9|
2,4,2.1|
2,5,9.5|
2,6,1.3|
2,7,0.21|
3,0,7.5|
3,1,6.1|
3,2,6.3|
3,3,5.4|
3,4,9|
3,5,10|
3,6,3.1|
3,7,9.8|
4,0,4.1|
4,1,6.9|
4,2,4.3|
4,3,0.91|
4,4,3.4|
4,5,2.7|
4,6,7.1|
4,7,4.6|
5,0,1.6|
5,1,6.5|
5,2,6.7|
5,3,3.6|
5,4,6.8|
5,5,8.7|
5,6,8.6|
5,7,3.2|
6,0,7.5|
6,1,5.6|
6,2,1.1|
6,3,7.1|
6,4,4|
6,5,0.96|
6,6,0.13|
6,7,9.9|
7,0,6.6|
7,1,7.5|
7,2,6.4|
7,3,7.7|
7,4,3.4|
7,5,9|
7,6,4.9|
7,7,1.5|
];
constraint_x11_x7=[
0,0,4.4|
0,1,7.9|
0,2,2.7|
0,3,9.4|
0,4,2|
0,5,4.3|
0,6,8.7|
0,7,5.7|
1,0,3.2|
1,1,6.5|
1,2,7.1|
1,3,5.5|
1,4,3.2|
1,5,2|
1,6,3.4|
1,7,9.1|
2,0,9.9|
2,1,0.84|
2,2,4.8|
2,3,6.5|
2,4,7.6|
2,5,9.1|
2,6,6.6|
2,7,4.3|
3,0,6.3|
3,1,2.7|
3,2,2.7|
3,3,0.67|
3,4,10|
3,5,3.8|
3,6,9.3|
3,7,0.95|
4,0,9.3|
4,1,7.5|
4,2,5.9|
4,3,5.1|
4,4,4.3|
4,5,7.6|
4,6,4.5|
4,7,5.6|
5,0,7.2|
5,1,9|
5,2,4.4|
5,3,3.4|
5,4,3.4|
5,5,7.1|
5,6,1|
5,7,7.2|
6,0,1.6|
6,1,6.8|
6,2,4.8|
6,3,3.8|
6,4,4.5|
6,5,4.5|
6,6,3|
6,7,9.6|
7,0,4.7|
7,1,7.4|
7,2,2|
7,3,5.7|
7,4,7.8|
7,5,9.6|
7,6,1.6|
7,7,4|
];
constraint_x12_x8=[
0,0,0.7|
0,1,7|
0,2,5.9|
0,3,6|
0,4,2.9|
0,5,3.4|
0,6,7.9|
0,7,1.2|
1,0,3.3|
1,1,4.9|
1,2,6.5|
1,3,8.8|
1,4,7.3|
1,5,5.4|
1,6,6.8|
1,7,2|
2,0,7.1|
2,1,9.9|
2,2,2.1|
2,3,6.1|
2,4,4.7|
2,5,4.5|
2,6,9.3|
2,7,5.2|
3,0,0.39|
3,1,3.2|
3,2,7.1|
3,3,3.5|
3,4,7.3|
3,5,7.5|
3,6,3.7|
3,7,3.9|
4,0,2.1|
4,1,4.6|
4,2,0.7|
4,3,7.1|
4,4,2.3|
4,5,2.7|
4,6,0.47|
4,7,8.1|
5,0,4.1|
5,1,0.53|
5,2,6.5|
5,3,7.7|
5,4,4.8|
5,5,6.2|
5,6,0.54|
5,7,3.5|
6,0,1.3|
6,1,8.2|
6,2,5.3|
6,3,0.4|
6,4,0.25|
6,5,7.1|
6,6,6|
6,7,7|
7,0,0.84|
7,1,6.6|
7,2,1|
7,3,1.1|
7,4,3.6|
7,5,6.6|
7,6,1.9|
7,7,5.3|
];
constraint_x13_x9=[
0,0,2.6|
0,1,0.12|
0,2,8.9|
0,3,5.2|
0,4,7.2|
0,5,5.8|
0,6,6.1|
0,7,3.7|
1,0,8.9|
1,1,6|
1,2,6.8|
1,3,9.2|
1,4,9|
1,5,3.7|
1,6,1.4|
1,7,2.3|
2,0,9.5|
2,1,6.2|
2,2,7.9|
2,3,6.3|
2,4,3.3|
2,5,4|
2,6,1|
2,7,3|
3,0,9.6|
3,1,8.5|
3,2,6.3|
3,3,4.3|
3,4,6.5|
3,5,7|
3,6,1.1|
3,7,6.1|
4,0,1.4|
4,1,6.8|
4,2,2.1|
4,3,0.54|
4,4,2.6|
4,5,3.1|
4,6,2.5|
4,7,5.5|
5,0,7|
5,1,2.2|
5,2,1.8|
5,3,2.1|
5,4,4|
5,5,2.5|
5,6,3.5|
5,7,8.7|
6,0,9.7|
6,1,5.2|
6,2,0.14|
6,3,8|
6,4,2.7|
6,5,9.4|
6,6,7.6|
6,7,8.1|
7,0,2.6|
7,1,7.7|
7,2,9.9|
7,3,3.6|
7,4,4.9|
7,5,7.1|
7,6,6.2|
7,7,6.6|
];
constraint_x14_x10=[
0,0,0.53|
0,1,0.46|
0,2,8.4|
0,3,6.2|
0,4,4|
0,5,3.5|
0,6,3.4|
0,7,7.5|
1,0,9.5|
1,1,1.9|
1,2,9.8|
1,3,7.3|
1,4,8.3|
1,5,4.8|
1,6,9.9|
1,7,4.6|
2,0,0.33|
2,1,4.7|
2,2,1.7|
2,3,0.44|
2,4,6.3|
2,5,0.38|
2,6,4.9|
2,7,2.9|
3,0,7.1|
3,1,8.5|
3,2,3.2|
3,3,3.7|
3,4,8|
3,5,7|
3,6,1.1|
3,7,4.9|
4,0,5.2|
4,1,9.6|
4,2,7.3|
4,3,4.7|
4,4,1.6|
4,5,1.6|
4,6,4.2|
4,7,1.6|
5,0,6.5|
5,1,3.1|
5,2,6.5|
5,3,8.4|
5,4,2.3|
5,5,4.9|
5,6,1.5|
5,7,5.7|
6,0,5.2|
6,1,9.7|
6,2,7.2|
6,3,1.8|
6,4,9.8|
6,5,6.4|
6,6,1.6|
6,7,2|
7,0,0.64|
7,1,1.1|
7,2,0.41|
7,3,7.4|
7,4,2.2|
7,5,4.7|
7,6,4.7|
7,7,8.3|
];
constraint_x15_x11=[
0,0,5.7|
0,1,7.6|
0,2,7.2|
0,3,3|
0,4,6.2|
0,5,6.4|
0,6,2.6|
0,7,0.16|
1,0,5.3|
1,1,3.8|
1,2,6.7|
1,3,2.6|
1,4,2.2|
1,5,6.8|
1,6,0.5|
1,7,5.4|
2,0,9.5|
2,1,3.2|
2,2,5.3|
2,3,6.4|
2,4,9.1|
2,5,4.3|
2,6,1.9|
2,7,0.26|
3,0,7.5|
3,1,6|
3,2,7.5|
3,3,0.67|
3,4,6.2|
3,5,3.2|
3,6,5.6|
3,7,1.8|
4,0,1.6|
4,1,0.24|
4,2,8.7|
4,3,2.7|
4,4,2.3|
4,5,7.2|
4,6,5.7|
4,7,9.6|
5,0,8.4|
5,1,6.3|
5,2,9.7|
5,3,1.6|
5,4,4.6|
5,5,1.8|
5,6,1.6|
5,7,5.6|
6,0,6.1|
6,1,7.2|
6,2,3.3|
6,3,0.73|
6,4,5.8|
6,5,7.8|
6,6,0.94|
6,7,4.3|
7,0,7.8|
7,1,5.1|
7,2,9.7|
7,3,4.2|
7,4,10|
7,5,9.9|
7,6,9.7|
7,7,9.8|
];
constraint_x16_x12=[
0,0,2.8|
0,1,1.9|
0,2,2.1|
0,3,9.9|
0,4,1.5|
0,5,9.6|
0,6,5|
0,7,2.1|
1,0,0.23|
1,1,4.8|
1,2,6.2|
1,3,7|
1,4,3|
1,5,4.2|
1,6,0.38|
1,7,3.6|
2,0,9.3|
2,1,7|
2,2,1.6|
2,3,0.16|
2,4,7.7|
2,5,9.3|
2,6,2.5|
2,7,5.9|
3,0,0.24|
3,1,6|
3,2,1.7|
3,3,6.8|
3,4,1.2|
3,5,9.9|
3,6,4.2|
3,7,4.3|
4,0,4.8|
4,1,9.7|
4,2,9.1|
4,3,8.3|
4,4,8.5|
4,5,8.3|
4,6,9.2|
4,7,1.8|
5,0,2.8|
5,1,6.4|
5,2,7.5|
5,3,4.8|
5,4,4.9|
5,5,3|
5,6,1.2|
5,7,2.1|
6,0,5.3|
6,1,4.9|
6,2,5.8|
6,3,4.4|
6,4,4.8|
6,5,6|
6,6,5.9|
6,7,1.1|
7,0,0.71|
7,1,4.2|
7,2,10|
7,3,4.8|
7,4,1.5|
7,5,2.4|
7,6,4.5|
7,7,4.1|
];
constraint_x1_y1=[
0,0,3.9|
0,1,2.2|
0,2,7.7|
0,3,2.4|
0,4,9.5|
0,5,4.3|
0,6,0.25|
0,7,5.9|
1,0,5.7|
1,1,8.3|
1,2,9.3|
1,3,7.1|
1,4,6.8|
1,5,0.6|
1,6,4|
1,7,6.9|
2,0,5.2|
2,1,7.6|
2,2,7.8|
2,3,0.77|
2,4,3.1|
2,5,1.9|
2,6,4.5|
2,7,5.8|
3,0,7.8|
3,1,5.1|
3,2,8.5|
3,3,5.8|
3,4,2.7|
3,5,7.9|
3,6,2.5|
3,7,2.2|
4,0,4.3|
4,1,7.9|
4,2,8.8|
4,3,3.7|
4,4,7.1|
4,5,7.3|
4,6,5.3|
4,7,2.2|
5,0,0.82|
5,1,8.2|
5,2,5.7|
5,3,2.3|
5,4,3.9|
5,5,1.8|
5,6,6.3|
5,7,4.8|
6,0,4.3|
6,1,2.4|
6,2,3.2|
6,3,4.7|
6,4,6.6|
6,5,2|
6,6,3.8|
6,7,6.3|
7,0,2.1|
7,1,3.9|
7,2,7.7|
7,3,7.5|
7,4,7.6|
7,5,7|
7,6,4|
7,7,6.8|
];
constraint_x2_y2=[
0,0,6.1|
0,1,8.8|
0,2,3.5|
0,3,6.1|
0,4,0.65|
0,5,8.7|
0,6,6.6|
0,7,5.8|
1,0,6.7|
1,1,1|
1,2,0.53|
1,3,8|
1,4,3.7|
1,5,5.4|
1,6,2.4|
1,7,7.9|
2,0,0.65|
2,1,7.5|
2,2,7.1|
2,3,0.12|
2,4,2.9|
2,5,2.5|
2,6,6.4|
2,7,3|
3,0,4|
3,1,1.7|
3,2,6.6|
3,3,8.5|
3,4,9|
3,5,10|
3,6,6|
3,7,7.3|
4,0,6.3|
4,1,0.11|
4,2,1.6|
4,3,2.7|
4,4,6.1|
4,5,9|
4,6,6|
4,7,0.015|
5,0,1.7|
5,1,2.8|
5,2,7.8|
5,3,3.9|
5,4,8.8|
5,5,3|
5,6,4|
5,7,3.3|
6,0,7|
6,1,2.5|
6,2,7|
6,3,7.2|
6,4,1.1|
6,5,8.5|
6,6,5.7|
6,7,8.6|
7,0,7|
7,1,5.4|
7,2,9.6|
7,3,4.2|
7,4,5.1|
7,5,6.5|
7,6,7|
7,7,0.5|
];
constraint_x3_y3=[
0,0,0.46|
0,1,7.6|
0,2,3.5|
0,3,7.5|
0,4,0.51|
0,5,6.9|
0,6,5.5|
0,7,9.1|
1,0,2|
1,1,1.2|
1,2,7|
1,3,8.9|
1,4,5.3|
1,5,4.2|
1,6,9.4|
1,7,7.4|
2,0,4.5|
2,1,5.4|
2,2,7.5|
2,3,1.5|
2,4,3.1|
2,5,1.6|
2,6,5.7|
2,7,7.2|
3,0,4.5|
3,1,7|
3,2,7.5|
3,3,1.3|
3,4,8.2|
3,5,8.2|
3,6,5.7|
3,7,8.8|
4,0,2.9|
4,1,2.4|
4,2,8.6|
4,3,9.4|
4,4,0.17|
4,5,2.9|
4,6,0.94|
4,7,4.3|
5,0,2.4|
5,1,7.7|
5,2,4.6|
5,3,0.56|
5,4,9.1|
5,5,3.3|
5,6,5.6|
5,7,7.6|
6,0,8.1|
6,1,5|
6,2,2.3|
6,3,2.7|
6,4,3.1|
6,5,3|
6,6,7.2|
6,7,9.9|
7,0,5.4|
7,1,5.8|
7,2,1.8|
7,3,6.5|
7,4,5.8|
7,5,8.2|
7,6,8.8|
7,7,8|
];
constraint_x4_y4=[
0,0,3.9|
0,1,2.4|
0,2,8.1|
0,3,7|
0,4,9.3|
0,5,7.2|
0,6,4|
0,7,3.8|
1,0,1.9|
1,1,6.2|
1,2,7.6|
1,3,6.5|
1,4,6.2|
1,5,5.1|
1,6,7.5|
1,7,6.8|
2,0,4.9|
2,1,7|
2,2,5.4|
2,3,8.6|
2,4,5.3|
2,5,5.4|
2,6,4.7|
2,7,8.3|
3,0,0.55|
3,1,1.6|
3,2,5.3|
3,3,3.4|
3,4,7.9|
3,5,4.8|
3,6,0.59|
3,7,9.1|
4,0,6.1|
4,1,7.3|
4,2,7|
4,3,8.4|
4,4,9.1|
4,5,4.4|
4,6,6.2|
4,7,3.7|
5,0,6.6|
5,1,5.7|
5,2,0.64|
5,3,0.95|
5,4,2.2|
5,5,6.4|
5,6,4.8|
5,7,0.35|
6,0,9.9|
6,1,4.2|
6,2,2.7|
6,3,5.1|
6,4,4|
6,5,3.7|
6,6,6.2|
6,7,5.5|
7,0,0.067|
7,1,2.4|
7,2,8.6|
7,3,3.9|
7,4,6.5|
7,5,6.3|
7,6,6|
7,7,9.8|
];
constraint_x5_y5=[
0,0,6|
0,1,0.51|
0,2,2.3|
0,3,5.9|
0,4,4.1|
0,5,9.7|
0,6,2|
0,7,3.7|
1,0,7|
1,1,8.1|
1,2,9.9|
1,3,9.9|
1,4,1.4|
1,5,7.8|
1,6,9.4|
1,7,7.2|
2,0,1.3|
2,1,4.8|
2,2,5.6|
2,3,7.6|
2,4,0.51|
2,5,0.86|
2,6,6.1|
2,7,9.4|
3,0,0.08|
3,1,2.6|
3,2,5.3|
3,3,2.4|
3,4,5.2|
3,5,3.4|
3,6,7.8|
3,7,8.3|
4,0,9.5|
4,1,6.1|
4,2,6.3|
4,3,2.6|
4,4,6.1|
4,5,9.6|
4,6,7.7|
4,7,6.4|
5,0,1.8|
5,1,8.1|
5,2,6.1|
5,3,3.6|
5,4,6.8|
5,5,0.96|
5,6,1.4|
5,7,9.5|
6,0,5.2|
6,1,1.7|
6,2,7.4|
6,3,7.4|
6,4,8.4|
6,5,8.9|
6,6,4|
6,7,5.9|
7,0,7.2|
7,1,0.31|
7,2,4.7|
7,3,7.6|
7,4,9.5|
7,5,9.2|
7,6,2.2|
7,7,5|
];
constraint_x6_y6=[
0,0,0.13|
0,1,6|
0,2,3.2|
0,3,0.4|
0,4,4.8|
0,5,2.6|
0,6,7.8|
0,7,4.2|
1,0,4|
1,1,7.7|
1,2,6.6|
1,3,8.9|
1,4,1.3|
1,5,1.9|
1,6,9.3|
1,7,7.5|
2,0,1.8|
2,1,9.2|
2,2,0.028|
2,3,3|
2,4,8.1|
2,5,4.9|
2,6,8.4|
2,7,6.4|
3,0,1|
3,1,0.34|
3,2,9.7|
3,3,5.9|
3,4,5.7|
3,5,3.2|
3,6,1.9|
3,7,4.9|
4,0,2.1|
4,1,2.7|
4,2,5.1|
4,3,3|
4,4,1.7|
4,5,9.8|
4,6,4.1|
4,7,3.5|
5,0,7.2|
5,1,9.4|
5,2,6|
5,3,5.9|
5,4,5.6|
5,5,9.9|
5,6,7.3|
5,7,4.3|
6,0,8.5|
6,1,4.5|
6,2,7.6|
6,3,8.9|
6,4,4.1|
6,5,8.3|
6,6,4.1|
6,7,5.1|
7,0,1.1|
7,1,9|
7,2,9.1|
7,3,4.7|
7,4,7.5|
7,5,6.4|
7,6,5.4|
7,7,4.6|
];
constraint_x7_y7=[
0,0,6.3|
0,1,8.7|
0,2,6.7|
0,3,9.9|
0,4,5.6|
0,5,9.5|
0,6,8.4|
0,7,5.2|
1,0,2.9|
1,1,6.5|
1,2,2|
1,3,5.8|
1,4,2.5|
1,5,2.4|
1,6,3.4|
1,7,9.9|
2,0,7.3|
2,1,8.4|
2,2,3.9|
2,3,4.5|
2,4,3.6|
2,5,2.6|
2,6,1.1|
2,7,9.5|
3,0,7.2|
3,1,7.2|
3,2,6.2|
3,3,3.5|
3,4,6.7|
3,5,1.3|
3,6,1.4|
3,7,0.56|
4,0,2.7|
4,1,2.4|
4,2,9.8|
4,3,0.032|
4,4,3|
4,5,2.7|
4,6,7.3|
4,7,5.8|
5,0,5|
5,1,0.11|
5,2,3.2|
5,3,3.1|
5,4,9.7|
5,5,3.2|
5,6,5.3|
5,7,8.3|
6,0,7.2|
6,1,3.5|
6,2,8.9|
6,3,3.3|
6,4,5.5|
6,5,8.8|
6,6,7.7|
6,7,1.9|
7,0,1.6|
7,1,0.51|
7,2,2.2|
7,3,2.6|
7,4,0.66|
7,5,8.4|
7,6,7.9|
7,7,1.9|
];
initial_distribution_y1=[0.18,0.075,0.14,0.22,0.039,0.18,0.13,0.031];
initial_distribution_y2=[0.0056,0.19,0.087,0.16,0.088,0.17,0.18,0.12];
initial_distribution_y3=[0.18,0.14,0.063,0.1,0.23,0.013,0.08,0.19];
initial_distribution_y4=[0.13,0.23,0.14,0.11,0.012,0.022,0.13,0.22];
initial_distribution_y5=[0.027,0.05,0.036,0.2,0.15,0.19,0.11,0.24];
initial_distribution_y6=[0.21,0.12,0.054,0.19,0.2,0.016,0.14,0.071];
initial_distribution_y7=[0.21,0.097,0.099,0.008,0.17,0.26,0.082,0.063];
transition_y1=[
0.17,0.18,0.15,0.11,0.015,0.17,0.089,0.11|
0.11,0.19,0.019,0.021,0.22,0.24,0.11,0.091|
0.19,0.0023,0.16,0.12,0.11,0.12,0.2,0.11|
0.095,0.16,0.14,0.13,0.12,0.18,0.12,0.043|
0.033,0.072,0.073,0.023,0.091,0.23,0.3,0.17|
0.16,0.15,0.11,0.11,0.062,0.17,0.05,0.18|
0.18,0.11,0.11,0.16,0.2,0.13,0.11,0.011|
0.057,0.11,0.085,0.11,0.15,0.2,0.14,0.14|
];
transition_y2=[
0.14,0.17,0.095,0.15,0.19,0.042,0.14,0.077|
0.18,0.13,0.077,0.19,0.15,0.0037,0.19,0.086|
0.24,0.045,0.088,0.058,0.14,0.15,0.16,0.12|
0.046,0.13,0.032,0.15,0.08,0.2,0.14,0.23|
0.15,0.28,0.098,0.068,0.0068,0.29,0.0079,0.1|
0.029,0.14,0.12,0.22,0.089,0.21,0.087,0.1|
0.16,0.21,0.13,0.13,0.099,0.13,0.012,0.14|
0.1,0.097,0.066,0.067,0.2,0.23,0.13,0.11|
];
transition_y3=[
0.22,0.18,0.034,0.04,0.14,0.16,0.083,0.14|
0.009,0.33,0.11,0.018,0.012,0.024,0.19,0.31|
0.15,0.16,0.078,0.12,0.15,0.081,0.19,0.061|
0.22,0.067,0.073,0.076,0.23,0.088,0.1,0.15|
0.036,0.18,0.14,0.13,0.24,0.061,0.031,0.18|
0.2,0.17,0.18,0.064,0.029,0.1,0.18,0.068|
0.059,0.23,0.16,0.12,0.22,0.11,0.067,0.038|
0.093,0.22,0.084,0.19,0.053,0.075,0.23,0.055|
];
transition_y4=[
0.16,0.19,0.17,0.19,0.043,0.17,0.019,0.053|
0.091,0.16,0.16,0.048,0.21,0.14,0.18,0.0074|
0.08,0.026,0.097,0.12,0.28,0.16,0.19,0.047|
0.24,0.053,0.19,0.21,0.042,0.014,0.23,0.011|
0.13,0.13,0.12,0.18,0.091,0.041,0.13,0.18|
0.21,0.039,0.06,0.15,0.03,0.12,0.2,0.18|
0.18,0.13,0.12,0.03,0.032,0.22,0.17,0.12|
0.0093,0.21,0.021,0.19,0.067,0.19,0.12,0.19|
];
transition_y5=[
0.099,0.043,0.15,0.035,0.18,0.12,0.13,0.25|
0.13,0.17,0.17,0.22,0.074,0.038,0.043,0.16|
0.071,0.071,0.2,0.0052,0.16,0.2,0.2,0.093|
0.32,0.057,0.0067,0.085,0.13,0.24,0.078,0.083|
0.21,0.2,0.032,0.15,0.09,0.017,0.074,0.23|
0.097,0.079,0.096,0.094,0.16,0.14,0.17,0.17|
0.15,0.019,0.043,0.1,0.17,0.042,0.23,0.24|
0.15,0.033,0.052,0.0096,0.24,0.21,0.14,0.16|
];
transition_y6=[
0.071,0.18,0.14,0.063,0.14,0.028,0.19,0.19|
0.12,0.044,0.2,0.091,0.087,0.15,0.2,0.1|
0.19,0.23,0.19,0.092,0.019,0.05,0.19,0.038|
0.11,0.14,0.21,0.19,0.11,0.026,0.024,0.2|
0.0029,0.2,0.15,0.2,0.15,0.1,0.057,0.14|
0.063,0.18,0.14,0.11,0.17,0.095,0.08,0.17|
0.21,0.028,0.068,0.17,0.18,0.16,0.13,0.068|
0.24,0.19,0.0032,0.067,0.13,0.15,0.092,0.13|
];
transition_y7=[
0.012,0.23,0.1,0.15,0.091,0.13,0.081,0.2|
0.17,0.06,0.12,0.047,0.3,0.22,0.031,0.054|
0.098,0.16,0.01,0.0092,0.24,0.23,0.17,0.084|
0.12,0.33,0.032,0.17,0.057,0.1,0.064,0.12|
0.096,0.28,0.16,0.21,0.037,0.093,0.043,0.08|
0.18,0.08,0.041,0.084,0.29,0.19,0.018,0.13|
0.098,0.15,0.15,0.0033,0.096,0.24,0.14,0.13|
0.17,0.089,0.017,0.24,0.12,0.073,0.29,0.0077|
];
